 Code   831
 Dimension, Fixed Cost
   100        3000
 Facility, Client, Transportation Cost
     1        3           0
     1       22           1
     1       23           4
     1       26           3
     1       28           2
     1       33           4
     1       36           0
     1       37           1
     1       57           3
     1       66           2
     2        6           0
     2        9           4
     2       14           2
     2       16           0
     2       22           0
     2       31           0
     2       51           3
     2       63           2
     2       81           1
     2       85           4
     3        5           0
     3       16           4
     3       18           1
     3       31           3
     3       34           2
     3       55           4
     3       73           4
     3       77           4
     3       88           3
     3       92           0
     4        3           1
     4       22           4
     4       30           0
     4       37           0
     4       39           0
     4       41           4
     4       50           3
     4       54           1
     4       60           3
     4       65           3
     5       18           0
     5       34           4
     5       36           3
     5       43           3
     5       47           1
     5       60           3
     5       63           1
     5       66           4
     5       72           3
     5       83           3
     6        2           3
     6       14           1
     6       24           2
     6       30           4
     6       37           1
     6       40           3
     6       48           1
     6       51           3
     6       53           2
     6       60           0
     7        2           4
     7        6           2
     7       14           0
     7       41           4
     7       49           0
     7       56           0
     7       57           4
     7       73           4
     7       76           2
     7      100           1
     8        8           1
     8       18           4
     8       36           1
     8       43           3
     8       58           2
     8       75           1
     8       78           1
     8       82           4
     8       83           1
     8       85           2
     9       29           4
     9       42           0
     9       48           4
     9       73           2
     9       84           0
     9       90           3
     9       92           2
     9       94           0
     9       95           1
     9       97           1
    10        3           4
    10        9           1
    10       26           1
    10       32           3
    10       39           3
    10       48           0
    10       68           4
    10       74           4
    10       85           3
    10       97           0
    11       11           1
    11       12           3
    11       13           4
    11       37           1
    11       47           3
    11       56           1
    11       74           1
    11       80           3
    11       87           4
    11       97           2
    12       17           1
    12       22           1
    12       28           3
    12       43           3
    12       45           2
    12       61           4
    12       62           0
    12       76           4
    12       88           3
    12       91           3
    13       15           3
    13       16           1
    13       24           3
    13       28           4
    13       31           4
    13       39           4
    13       64           1
    13       70           4
    13       74           3
    13       81           4
    14       28           3
    14       35           2
    14       36           4
    14       45           3
    14       46           2
    14       57           2
    14       60           3
    14       72           3
    14       83           0
    14       99           0
    15       27           3
    15       36           0
    15       37           2
    15       45           2
    15       53           2
    15       58           2
    15       62           4
    15       78           4
    15       82           1
    15       94           3
    16       18           0
    16       20           0
    16       22           1
    16       24           3
    16       28           3
    16       36           3
    16       44           0
    16       71           4
    16       79           3
    16       93           0
    17        6           2
    17       29           0
    17       37           0
    17       45           1
    17       59           2
    17       70           0
    17       85           4
    17       90           1
    17       92           3
    17       99           2
    18        2           0
    18        8           0
    18       10           2
    18       12           4
    18       19           1
    18       26           0
    18       28           2
    18       29           2
    18       59           2
    18       80           2
    19        9           0
    19       20           1
    19       22           2
    19       23           3
    19       68           1
    19       77           4
    19       78           4
    19       89           4
    19       90           0
    19       98           0
    20        3           4
    20       17           4
    20       28           3
    20       31           3
    20       52           4
    20       65           4
    20       81           2
    20       82           4
    20       85           0
    20       98           0
    21       17           1
    21       28           4
    21       29           3
    21       32           3
    21       46           4
    21       58           2
    21       63           3
    21       65           3
    21       85           2
    21       99           0
    22        2           1
    22       34           4
    22       36           4
    22       39           2
    22       54           3
    22       59           3
    22       64           2
    22       66           2
    22       70           0
    22       99           1
    23       10           3
    23       20           0
    23       53           1
    23       55           0
    23       62           1
    23       67           2
    23       69           1
    23       78           3
    23       90           4
    23       92           0
    24       19           4
    24       42           4
    24       44           2
    24       50           4
    24       52           0
    24       54           2
    24       66           4
    24       67           2
    24       86           1
    24       92           0
    25        1           4
    25       12           2
    25       33           1
    25       36           1
    25       50           2
    25       51           1
    25       52           1
    25       69           1
    25       81           0
    25      100           3
    26       12           4
    26       14           3
    26       31           1
    26       32           1
    26       46           4
    26       56           3
    26       67           0
    26       74           4
    26       77           4
    26       88           0
    27        4           0
    27        6           2
    27       10           0
    27       28           3
    27       48           1
    27       64           4
    27       68           1
    27       76           2
    27       89           0
    27       98           2
    28        9           3
    28       10           2
    28       33           2
    28       35           3
    28       44           1
    28       48           3
    28       50           2
    28       67           4
    28       83           4
    28       88           0
    29       17           2
    29       41           2
    29       61           0
    29       62           1
    29       68           1
    29       73           4
    29       79           3
    29       81           4
    29       83           0
    29      100           4
    30       22           3
    30       38           0
    30       59           4
    30       62           1
    30       67           0
    30       73           3
    30       82           3
    30       83           4
    30       85           2
    30       99           3
    31        5           0
    31       15           2
    31       18           1
    31       21           4
    31       29           2
    31       53           2
    31       56           4
    31       65           0
    31       68           4
    31      100           0
    32        1           1
    32        3           2
    32       15           4
    32       26           1
    32       32           0
    32       37           0
    32       42           1
    32       64           3
    32       68           2
    32       83           4
    33       20           1
    33       22           4
    33       23           2
    33       34           3
    33       43           2
    33       44           3
    33       48           4
    33       50           3
    33       67           2
    33       71           1
    34        5           1
    34       26           3
    34       58           0
    34       65           3
    34       73           3
    34       80           2
    34       83           3
    34       85           0
    34       88           3
    34       92           1
    35       23           0
    35       32           2
    35       33           2
    35       49           0
    35       52           2
    35       58           2
    35       60           1
    35       75           1
    35       84           2
    35       90           4
    36       12           1
    36       21           2
    36       28           2
    36       37           2
    36       44           3
    36       46           3
    36       57           2
    36       75           1
    36       76           2
    36       89           1
    37        5           2
    37       10           0
    37       52           4
    37       55           0
    37       72           3
    37       73           4
    37       74           2
    37       76           1
    37       82           0
    37       93           3
    38       10           4
    38       36           3
    38       39           3
    38       44           1
    38       61           0
    38       76           4
    38       81           0
    38       87           2
    38       91           3
    38       96           3
    39        5           3
    39       23           1
    39       29           2
    39       35           2
    39       39           2
    39       57           3
    39       87           2
    39       90           1
    39       97           2
    39      100           4
    40        2           1
    40        5           3
    40       19           0
    40       22           2
    40       24           0
    40       29           0
    40       35           3
    40       57           1
    40       65           0
    40       80           0
    41        2           0
    41       43           3
    41       47           2
    41       50           3
    41       60           1
    41       64           3
    41       65           0
    41       71           2
    41       72           2
    41       78           3
    42        2           0
    42        5           1
    42        7           0
    42       22           1
    42       24           0
    42       61           2
    42       68           2
    42       73           1
    42       81           4
    42       88           2
    43        7           3
    43       12           2
    43       19           1
    43       28           0
    43       47           3
    43       64           4
    43       70           3
    43       86           1
    43       96           4
    43      100           3
    44       20           0
    44       22           4
    44       24           0
    44       30           4
    44       44           1
    44       49           1
    44       54           2
    44       70           3
    44       93           0
    44       95           2
    45        3           2
    45        4           2
    45       16           3
    45       19           3
    45       20           4
    45       44           4
    45       51           1
    45       63           2
    45       86           0
    45       98           3
    46        7           0
    46       17           3
    46       19           0
    46       61           4
    46       69           2
    46       74           1
    46       80           4
    46       84           2
    46       87           3
    46       92           0
    47        4           0
    47       14           4
    47       26           0
    47       37           2
    47       55           2
    47       76           0
    47       79           2
    47       85           2
    47       88           3
    47       97           1
    48        6           4
    48       10           1
    48       11           3
    48       13           1
    48       33           3
    48       42           2
    48       56           1
    48       63           3
    48       74           0
    48       96           2
    49        9           1
    49       16           4
    49       33           4
    49       42           3
    49       52           1
    49       55           1
    49       61           3
    49       74           3
    49       91           2
    49       93           0
    50        5           2
    50        6           2
    50       11           1
    50       41           0
    50       51           3
    50       69           2
    50       71           4
    50       90           3
    50       93           3
    50       95           0
    51        7           2
    51        8           2
    51       14           3
    51       25           4
    51       43           1
    51       71           1
    51       76           4
    51       90           0
    51       97           0
    51       99           1
    52        2           3
    52       15           0
    52       31           4
    52       40           3
    52       41           0
    52       56           1
    52       61           4
    52       73           2
    52       84           4
    52       90           3
    53        1           4
    53       18           4
    53       39           0
    53       49           4
    53       64           3
    53       66           4
    53       69           1
    53       78           4
    53       83           3
    53       95           2
    54        9           0
    54       13           1
    54       46           0
    54       59           0
    54       66           1
    54       68           2
    54       79           3
    54       82           2
    54       83           1
    54       97           1
    55        3           1
    55       32           1
    55       45           0
    55       47           3
    55       62           0
    55       78           0
    55       83           1
    55       87           3
    55       97           3
    55       99           1
    56        5           0
    56        8           4
    56       10           3
    56       27           1
    56       33           3
    56       67           3
    56       92           3
    56       93           1
    56       95           2
    56       97           0
    57        2           3
    57        6           0
    57       27           1
    57       49           3
    57       53           1
    57       72           3
    57       74           0
    57       77           0
    57       89           2
    57       99           3
    58        2           1
    58        3           1
    58       29           1
    58       34           4
    58       48           2
    58       57           0
    58       75           0
    58       77           0
    58       95           2
    58       98           0
    59        9           4
    59       29           2
    59       35           3
    59       44           3
    59       72           1
    59       79           4
    59       83           1
    59       84           0
    59       90           2
    59      100           4
    60        9           0
    60       19           0
    60       20           4
    60       22           2
    60       57           2
    60       66           0
    60       77           4
    60       83           0
    60       84           4
    60       87           1
    61        9           1
    61       17           1
    61       21           2
    61       22           4
    61       30           2
    61       49           3
    61       64           3
    61       66           0
    61       74           1
    61       84           2
    62        2           1
    62       22           1
    62       26           4
    62       30           3
    62       44           1
    62       79           2
    62       86           1
    62       89           4
    62       90           0
    62       91           3
    63        4           2
    63       20           4
    63       30           0
    63       43           4
    63       44           0
    63       58           3
    63       73           4
    63       75           4
    63       78           0
    63       84           0
    64       17           2
    64       22           0
    64       28           1
    64       34           4
    64       37           1
    64       51           3
    64       71           1
    64       80           0
    64       84           0
    64       97           2
    65        6           2
    65       32           0
    65       33           0
    65       50           0
    65       52           0
    65       64           3
    65       70           3
    65       71           0
    65       84           4
    65       91           2
    66        2           4
    66       14           1
    66       21           4
    66       28           2
    66       42           0
    66       57           0
    66       62           0
    66       75           3
    66       77           3
    66       79           1
    67        9           1
    67       11           3
    67       28           3
    67       33           2
    67       55           3
    67       65           0
    67       73           0
    67       86           3
    67       89           1
    67       97           1
    68        1           0
    68       14           4
    68       25           0
    68       29           0
    68       46           1
    68       59           4
    68       65           4
    68       78           2
    68       81           2
    68       93           2
    69        5           0
    69       13           3
    69       19           3
    69       35           1
    69       63           1
    69       67           0
    69       71           4
    69       76           2
    69       82           4
    69       95           3
    70        3           3
    70        5           3
    70       15           2
    70       19           3
    70       24           0
    70       26           0
    70       50           4
    70       57           0
    70       63           3
    70       96           1
    71        6           3
    71       20           2
    71       35           0
    71       40           0
    71       41           1
    71       48           1
    71       50           3
    71       61           3
    71       83           1
    71       92           0
    72        4           2
    72       15           2
    72       28           1
    72       29           0
    72       45           4
    72       57           2
    72       60           1
    72       88           4
    72       90           2
    72       94           2
    73       19           3
    73       24           3
    73       25           3
    73       34           4
    73       45           1
    73       47           1
    73       51           2
    73       72           0
    73       84           1
    73       97           1
    74        5           4
    74       12           0
    74       23           3
    74       33           3
    74       34           0
    74       54           0
    74       56           4
    74       73           0
    74       90           1
    74       95           3
    75        3           0
    75       14           3
    75       22           2
    75       24           1
    75       35           2
    75       47           3
    75       59           4
    75       62           2
    75       88           4
    75      100           3
    76        1           0
    76       10           2
    76       26           4
    76       42           4
    76       45           4
    76       48           0
    76       57           1
    76       66           2
    76       81           1
    76       89           3
    77       13           3
    77       20           2
    77       32           4
    77       56           4
    77       65           1
    77       66           2
    77       67           4
    77       68           2
    77       77           1
    77       89           4
    78        7           0
    78       28           0
    78       32           1
    78       55           2
    78       56           0
    78       63           4
    78       80           1
    78       81           4
    78       89           2
    78       97           2
    79        5           2
    79       15           3
    79       21           4
    79       23           1
    79       55           4
    79       58           4
    79       83           0
    79       92           2
    79       96           4
    79       98           2
    80       37           0
    80       50           2
    80       53           3
    80       55           2
    80       59           3
    80       63           3
    80       71           4
    80       77           3
    80       81           4
    80       97           0
    81       11           0
    81       12           1
    81       30           3
    81       74           3
    81       79           0
    81       81           4
    81       86           4
    81       87           2
    81       89           2
    81       93           0
    82       15           4
    82       18           2
    82       23           4
    82       34           4
    82       37           1
    82       40           2
    82       59           2
    82       75           2
    82       93           1
    82       96           3
    83       18           2
    83       23           4
    83       28           0
    83       32           3
    83       39           3
    83       49           3
    83       57           3
    83       81           2
    83       88           1
    83       94           1
    84        2           2
    84        5           3
    84       11           2
    84       18           3
    84       31           1
    84       47           1
    84       72           1
    84       75           4
    84       77           0
    84       91           3
    85       15           4
    85       16           4
    85       20           1
    85       37           2
    85       44           0
    85       67           0
    85       68           3
    85       73           2
    85       77           4
    85       79           3
    86       32           1
    86       53           0
    86       59           2
    86       71           0
    86       78           2
    86       82           0
    86       88           0
    86       90           3
    86       97           2
    86      100           4
    87        8           3
    87       43           2
    87       50           2
    87       51           4
    87       53           4
    87       56           1
    87       60           2
    87       63           4
    87       84           2
    87       96           0
    88        1           0
    88       12           3
    88       33           4
    88       36           3
    88       42           2
    88       44           2
    88       63           1
    88       85           0
    88       93           2
    88       99           3
    89       13           0
    89       25           2
    89       34           2
    89       38           3
    89       55           4
    89       57           0
    89       60           1
    89       62           0
    89       63           0
    89       73           1
    90        3           0
    90       17           3
    90       23           1
    90       35           0
    90       52           4
    90       53           2
    90       82           1
    90       83           3
    90       88           2
    90       92           0
    91       16           4
    91       29           4
    91       33           1
    91       35           0
    91       36           1
    91       43           0
    91       53           1
    91       56           0
    91       71           1
    91       78           4
    92        2           4
    92       12           4
    92       23           4
    92       28           3
    92       69           3
    92       80           2
    92       82           3
    92       92           1
    92       97           1
    92       99           0
    93       18           4
    93       23           3
    93       34           4
    93       48           4
    93       51           3
    93       63           4
    93       70           4
    93       85           3
    93       89           3
    93       98           3
    94        4           2
    94       11           0
    94       46           3
    94       53           3
    94       57           4
    94       59           4
    94       63           4
    94       74           2
    94       75           4
    94       87           2
    95       21           0
    95       24           2
    95       32           1
    95       36           4
    95       42           0
    95       56           3
    95       72           2
    95       80           2
    95       84           3
    95       94           1
    96        4           1
    96        6           1
    96       22           3
    96       42           0
    96       49           2
    96       58           3
    96       63           0
    96       64           3
    96       74           0
    96       83           0
    97       20           2
    97       22           1
    97       26           1
    97       29           3
    97       34           0
    97       55           2
    97       63           3
    97       85           0
    97       97           3
    97       98           4
    98        3           3
    98        5           4
    98        9           4
    98       36           4
    98       40           3
    98       47           0
    98       64           0
    98       65           3
    98       83           2
    98       99           2
    99       20           2
    99       22           3
    99       34           0
    99       43           1
    99       55           2
    99       61           3
    99       71           0
    99       72           3
    99       76           4
    99       90           0
   100       11           2
   100       13           2
   100       32           4
   100       44           3
   100       49           1
   100       55           0
   100       70           4
   100       80           1
   100       82           1
   100       86           1
